
Gurobi 8.1.1 (linux64, Python) logging started Wed Jul 24 11:04:36 2019

Academic license - for non-commercial use only
Changed value of parameter MIPGap to 0.01
   Prev: 0.0001  Min: 0.0  Max: 1e+100  Default: 0.0001
Changed value of parameter Threads to 1
   Prev: 0  Min: 0  Max: 1024  Default: 0
Changed value of parameter Presolve to 2
   Prev: -1  Min: -1  Max: 2  Default: -1
Changed value of parameter MIPFocus to 1
   Prev: 0  Min: 0  Max: 3  Default: 0
Changed value of parameter Cuts to 1
   Prev: -1  Min: -1  Max: 3  Default: -1
Changed value of parameter Method to 4
   Prev: -1  Min: -1  Max: 5  Default: -1
Changed value of parameter TimeLimit to 12600.0
   Prev: 1e+100  Min: 0.0  Max: 1e+100  Default: 1e+100
Optimize a model with 213 rows, 348 columns and 696 nonzeros
Variable types: 0 continuous, 348 integer (174 binary)
Coefficient statistics:
  Matrix range     [5e-02, 1e+00]
  Objective range  [1e+00, 3e+00]
  Bounds range     [1e+00, 2e+01]
  RHS range        [1e+00, 2e+01]
Found heuristic solution: objective 9.0000000
Presolve removed 163 rows and 239 columns
Presolve time: 0.01s
Presolved: 50 rows, 109 columns, 218 nonzeros
Found heuristic solution: objective 8.0000000
Variable types: 0 continuous, 109 integer (54 binary)
Presolve removed 33 rows and 53 columns
Presolved: 17 rows, 56 columns, 109 nonzeros


Root relaxation: objective 3.954545e+00, 13 iterations, 0.00 seconds

    Nodes    |    Current Node    |     Objective Bounds      |     Work
 Expl Unexpl |  Obj  Depth IntInf | Incumbent    BestBd   Gap | It/Node Time

     0     0    3.95455    0    4    8.00000    3.95455  50.6%     -    0s
H    0     0                       7.0000000    3.95455  43.5%     -    0s
     0     0    5.27273    0    8    7.00000    5.27273  24.7%     -    0s
     0     0    5.32168    0   14    7.00000    5.32168  24.0%     -    0s
     0     0     cutoff    0         7.00000    7.00000  0.00%     -    0s

Cutting planes:
  Gomory: 2
  Cover: 4
  MIR: 7
  Flow cover: 5

Explored 1 nodes (29 simplex iterations) in 0.03 seconds
Thread count was 1 (of 56 available processors)

Solution count 2: 7 8 

Optimal solution found (tolerance 1.00e-02)
Best objective 7.000000000000e+00, best bound 7.000000000000e+00, gap 0.0000%
Parameter SolutionNumber unchanged
   Value: 0  Min: 0  Max: 2000000000  Default: 0
Changed value of parameter SolutionNumber to 1
   Prev: 0  Min: 0  Max: 2000000000  Default: 0
